  8	65
 14
  0	 38	 34	 13	 78	  4	103	 56	 99	121	 69	  9	 74	131	
 14
  0	 37	  1	 36	 47	102	 66	 18	112	101	 83	  3	 68	131	
 16
  0	 64	 53	 20	 27	129	 29	118	 92	 94	 42	 19	107	 85	 84	131	
 12
  0	 40	  8	105	 11	 10	 76	 73	  5	 75	 70	131	
 24
  0	 43	 39	104	 54	 25	108	 21	 15	 90	 80	 86	 46	  6	119	 41	111	 58	 71	 63	106	123	128	131	
 22
  0	 30	 22	 14	 95	 33	 79	  2	 52	 87	 98	 65	 17	117	130	 67	  7	 82	 51	116	 72	131	
 22
  0	 32	 44	 49	 31	 23	 97	 55	114	 60	109	 88	 59	120	 48	125	 26	113	 96	 91	124	131	
 22
  0	 50	 57	 12	 35	122	 77	115	100	 61	 62	126	127	 28	 93	 16	 24	 45	 81	110	 89	131	
